(declare-fun var0 () String)
(assert (str.in.re var0 (re.++ (re.* (re.+ (re.union (re.+ (re.* (re.+ (str.to.re "33")))) (re.* (re.union (re.+ (str.to.re "44")) (re.* (str.to.re "5"))))))) (re.+ (re.+ (re.union (re.* (re.* (re.+ (str.to.re "00")))) (re.* (re.union (re.* (str.to.re "11")) (re.+ (str.to.re "22"))))))))))
(assert (<= 15 (str.len var0)))
(check-sat)